131 195 130 14 33 125 17 106 102 129 96 179 143 66 16 148 41 34 36 119 161 182 141 187 46 50 88 116 19 139 170 103 113 153 2 132 152 191 145 85 7 23 134 13 97 160 38 158 51 186 90 194 156 155 138 126 11 55 47 172 71 31 189 150 101 1 87 53 9 6 112 144 40 95 26 61 42 83 54 123 127 122 147 24 120 118 198 162 68 56 183 165 43 29 184 77 39 166 44 107 59 65 28 63 167 117 157 8 60 79 146 169 73 140 193 111 49 109 81 80 177 86 27 52 178 185 78 128 98 176 62 164 18 108 89 32 45 142 75 64 121 35 149 105 70 104 57 22 91 174 92 4 133 124 136 181 94 192 175 114 10 151 72 135 30 180 21 25 137 67 37 20 69 58 110 163 199 168 115 5 159 0 48 100 196 15 76 171 84 190 82 99 93 197 154 12 74 3 188 173 

